NAME: random-91-18714
TYPE: TSP
COMMENT: size=91 seed=18714
DIMENSION: 184
EDGE_WEIGHT_TYPE: EUC_2D
NODE_COORD_SECTION
+0 198 519
-0 198 519
+1 430 449
-1 56 404
+2 358 549
-2 288 970
+3 438 26
-3 718 78
+4 805 338
-4 535 218
+5 978 422
-5 992 534
+6 595 742
-6 199 153
+7 729 256
-7 613 603
+8 151 102
-8 915 88
+9 173 101
-9 144 302
+10 357 419
-10 221 498
+11 66 10
-11 252 242
+12 875 849
-12 146 62
+13 9 848
-13 171 808
+14 248 638
-14 362 691
+15 445 197
-15 319 546
+16 706 174
-16 518 353
+17 600 302
-17 382 798
+18 695 935
-18 899 119
+19 959 465
-19 700 455
+20 433 254
-20 594 413
+21 682 923
-21 251 431
+22 173 456
-22 724 218
+23 74 313
-23 814 467
+24 207 662
-24 852 685
+25 129 326
-25 916 153
+26 46 653
-26 26 612
+27 269 240
-27 760 993
+28 364 107
-28 19 993
+29 505 179
-29 527 488
+30 446 412
-30 884 521
+31 236 51
-31 185 37
+32 189 394
-32 35 916
+33 537 78
-33 298 209
+34 486 648
-34 858 186
+35 439 621
-35 603 214
+36 377 157
-36 822 369
+37 644 410
-37 107 677
+38 204 280
-38 978 150
+39 309 651
-39 619 848
+40 36 279
-40 87 239
+41 375 285
-41 373 537
+42 367 610
-42 979 938
+43 754 287
-43 753 368
+44 155 910
-44 37 718
+45 510 730
-45 922 401
+46 840 774
-46 245 67
+47 862 710
-47 923 356
+48 745 857
-48 82 726
+49 447 727
-49 819 377
+50 445 403
-50 21 324
+51 378 52
-51 695 893
+52 721 502
-52 418 170
+53 652 508
-53 919 30
+54 264 544
-54 994 271
+55 283 624
-55 940 724
+56 188 396
-56 418 673
+57 86 923
-57 620 55
+58 303 788
-58 801 788
+59 247 848
-59 326 809
+60 608 707
-60 867 819
+61 631 602
-61 705 634
+62 480 836
-62 499 180
+63 528 541
-63 283 587
+64 458 742
-64 7 152
+65 64 674
-65 883 257
+66 147 915
-66 262 228
+67 366 558
-67 92 246
+68 935 198
-68 105 453
+69 586 813
-69 165 940
+70 901 651
-70 473 258
+71 7 54
-71 281 260
+72 83 516
-72 79 809
+73 106 498
-73 121 804
+74 340 842
-74 595 833
+75 79 706
-75 557 786
+76 368 851
-76 724 135
+77 312 713
-77 980 247
+78 543 323
-78 749 639
+79 526 479
-79 838 990
+80 73 478
-80 599 263
+81 876 591
-81 657 776
+82 469 718
-82 125 906
+83 140 842
-83 77 521
+84 134 232
-84 717 261
+85 283 435
-85 671 999
+86 662 972
-86 213 846
+87 991 346
-87 663 124
+88 609 589
-88 489 794
+89 518 892
-89 867 109
+90 836 315
-90 981 398
+91 826 566
-91 475 428
PRECEDENCE_SECTION
+0 -0
+1 -1
+2 -2
+3 -3
+4 -4
+5 -5
+6 -6
+7 -7
+8 -8
+9 -9
+10 -10
+11 -11
+12 -12
+13 -13
+14 -14
+15 -15
+16 -16
+17 -17
+18 -18
+19 -19
+20 -20
+21 -21
+22 -22
+23 -23
+24 -24
+25 -25
+26 -26
+27 -27
+28 -28
+29 -29
+30 -30
+31 -31
+32 -32
+33 -33
+34 -34
+35 -35
+36 -36
+37 -37
+38 -38
+39 -39
+40 -40
+41 -41
+42 -42
+43 -43
+44 -44
+45 -45
+46 -46
+47 -47
+48 -48
+49 -49
+50 -50
+51 -51
+52 -52
+53 -53
+54 -54
+55 -55
+56 -56
+57 -57
+58 -58
+59 -59
+60 -60
+61 -61
+62 -62
+63 -63
+64 -64
+65 -65
+66 -66
+67 -67
+68 -68
+69 -69
+70 -70
+71 -71
+72 -72
+73 -73
+74 -74
+75 -75
+76 -76
+77 -77
+78 -78
+79 -79
+80 -80
+81 -81
+82 -82
+83 -83
+84 -84
+85 -85
+86 -86
+87 -87
+88 -88
+89 -89
+90 -90
+91 -91
EOF
